n_res = 5;
rcap = [24, 30, 19, 92, 81];
rtype = [1, 1, 1, 2, 2];
n_tasks = 16;
modes = [ {1, 2, 3}, {4, 5, 6}, {7, 8, 9}, {10, 11, 12}, {13, 14, 15}, {16, 17, 18}, {19, 20, 21}, {22, 23, 24}, {25, 26, 27}, {28, 29, 30}, {31, 32, 33}, {34, 35, 36}, {37, 38, 39}, {40, 41, 42}, {43, 44, 45}, {46, 47, 48} ];
succ = [ {7}, {12}, {4, 5, 9}, {7, 10, 11}, {6, 7}, {8, 10, 11}, {14}, {12, 13}, {12, 13, 15}, {14, 15, 16}, {13, 15}, {16}, {14, 16}, {}, {}, {} ];
n_opt = 48;
dur = [2, 7, 9, 4, 8, 9, 6, 7, 10, 1, 5, 10, 2, 2, 4, 3, 4, 5, 1, 3, 7, 1, 5, 8, 4, 5, 7, 2, 6, 9, 4, 6, 7, 2, 5, 6, 4, 5, 10, 1, 6, 7, 1, 3, 5, 1, 5, 5];
rreq = [|  4,  0,  0,  7,  7,  6,  0,  0,  1,  0,  0,  2,  9, 10,  7,  5,  0,  0,  0,  6,  0,  0,  0,  8,  6,  0,  0,  3,  0,  0,  0,  7,  0,  5,  0,  0,  0,  8,  6,  0,  0, 10,  5,  0,  0,  0,  7,  0
        |  0,  8,  6,  9,  9,  0,  0,  3,  0,  6,  0,  5,  8,  0,  8,  0,  4,  4,  0,  0,  8,  7,  1,  0,  0,  6,  0,  0,  7,  5,  8,  7,  6,  0,  3,  3,  0,  4,  1,  4,  0,  0,  0,  0,  0,  6,  5,  4
        |  7,  5,  0,  0,  0,  4,  1,  0,  0,  3,  2,  1,  0,  8,  0,  2,  0,  0,  2,  0,  0,  0,  0,  1,  0,  4,  2,  9,  7,  0,  0,  0,  4,  5,  5,  0,  7,  0,  0,  0,  3,  0,  9,  6,  3,  0,  0,  5
        |  5,  4,  4,  7,  7,  2,  5,  5,  4,  2,  2,  2,  7,  7,  6,  7,  5,  2, 10, 10, 10,  8,  7,  3,  9,  8,  8,  8,  8,  4,  5,  5,  4,  8,  7,  5,  6,  4,  3,  9,  8,  6,  5,  5,  4,  9,  7,  7
        |  6,  4,  3,  6,  5,  4,  5,  4,  4,  3,  2,  2,  9,  7,  5,  2,  2,  1,  3,  2,  2,  5,  4,  4,  3,  2,  1,  8,  6,  5,  8,  6,  5,  9,  9,  8, 10,  7,  6,  1,  1,  1, 10,  9,  7,  9,  8,  7 |];
